certificates/rado_a5_c162_N32.drat
-32 0
30 0
-18 0
16 0
20 0
-4 0
-28 0
-8 0
2 0
6 0
26 0
10 0
-14 0
-22 0
12 0
24 0
0
